NAME : amtsp.-97900.tour
COMMENT : Length = -97900
COMMENT : Found by LKH [Keld Helsgaun] Thu Apr 13 22:30:18 2023
TYPE : TOUR
DIMENSION : 21
TOUR_SECTION
1
2
15
16
17
11
14
13
12
19
18
21
20
3
4
5
6
7
8
9
10
-1
EOF
